15
0 10 96 11 83 58 64 26 55 65 90 33 23 5 82 
10 0 87 49 91 48 4 44 11 33 91 20 91 77 93 
96 87 0 45 49 63 25 25 12 26 88 48 56 8 98 
11 49 45 0 32 17 77 69 75 73 67 75 72 40 63 
83 91 49 32 0 44 29 95 8 29 32 73 30 19 22 
58 48 63 17 44 0 84 83 39 5 50 37 68 82 20 
64 4 25 77 29 84 0 34 100 60 79 65 96 9 73 
26 44 25 69 95 83 34 0 78 76 92 84 90 55 8 
55 11 12 75 8 39 100 78 0 63 84 34 64 14 5 
65 33 26 73 29 5 60 76 63 0 95 1 40 8 69 
90 91 88 67 32 50 79 92 84 95 0 12 100 96 23 
33 20 48 75 73 37 65 84 34 1 12 0 39 71 61 
23 91 56 72 30 68 96 90 64 40 100 39 0 3 43 
5 77 8 40 19 82 9 55 14 8 96 71 3 0 81 
82 93 98 63 22 20 73 8 5 69 23 61 43 81 0 
